# Solution for model count
# Objective value = 10
z#1 0
z#2 0
z#3 0
z#4 0
z#5 1
z#6 0
z#7 1
z#8 0
z#9 1
z#10 0
z#11 0
z#12 0
z#13 1
z#14 1
z#15 1
z#16 0
z#17 1
z#18 0
z#19 0
z#20 1
z#21 0
z#22 1
z#23 0
z#24 1
x#24 1571
x#23 0
x#22 887
x#21 0
x#20 143
x#19 0
x#18 0
x#17 309
x#16 0
x#15 953
x#14 3126
x#13 1028
x#12 0
x#11 0
x#10 0
x#9 692
x#8 0
x#7 649
x#6 0
x#5 642
x#4 0
x#3 0
x#2 0
x#1 0
